sat
(:added-eqs                   1573767
 :arith-eq-adapter            3759
 :arith-assume-eqs            6
 :arith-bound-propagations-lp 60392
 :arith-conflicts             165
 :arith-diseq                 65161
 :arith-fixed-eqs             45738
 :arith-lower                 85461
 :arith-make-feasible         37824
 :arith-max-columns           1884
 :arith-max-rows              906
 :arith-offset-eqs            19340
 :arith-upper                 103232
 :binary-propagations         5282789
 :conflicts                   13645
 :decisions                   1359000
 :del-clause                  11363
 :elim-unconstrained          2
 :final-checks                4
 :interface-eqs               3
 :max-memory                  43.40
 :memory                      25.58
 :minimized-lits              49384
 :mk-bool-var                 22768
 :mk-clause                   22131
 :mk-clause-binary            17651
 :num-allocs                  314945541
 :num-checks                  1
 :propagations                6675868
 :restarts                    89
 :rlimit-count                30033433
 :time                        43.72
 :total-time                  43.99)
